p cnf 152 704
1 -97 -81 0
-1 97 -81 0
1 97 -82 0
-1 -97 -82 0
21 -97 -85 0
-21 97 -85 0
21 97 -86 0
-21 -97 -86 0
41 -97 -89 0
-41 97 -89 0
41 97 -90 0
-41 -97 -90 0
61 -97 -93 0
-61 97 -93 0
61 97 -94 0
-61 -97 -94 0
2 -81 0
2 -82 0
81 -81 0
82 -82 0
22 -85 0
22 -86 0
85 -85 0
86 -86 0
42 -89 0
42 -90 0
89 -89 0
90 -90 0
62 -93 0
62 -94 0
93 -93 0
94 -94 0
3 -81 0
3 -82 0
81 -81 0
82 -82 0
23 -85 0
23 -86 0
85 -85 0
86 -86 0
43 -89 0
43 -90 0
89 -89 0
90 -90 0
63 -93 0
63 -94 0
93 -93 0
94 -94 0
4 -81 0
4 -82 0
81 -81 0
82 -82 0
24 -85 0
24 -86 0
85 -85 0
86 -86 0
44 -89 0
44 -90 0
89 -89 0
90 -90 0
64 -93 0
64 -94 0
93 -93 0
94 -94 0
5 -81 0
5 -82 0
81 -81 0
82 -82 0
25 -85 0
25 -86 0
85 -85 0
86 -86 0
45 -89 0
45 -90 0
89 -89 0
90 -90 0
65 -93 0
65 -94 0
93 -93 0
94 -94 0
6 -81 0
6 -82 0
81 -81 0
82 -82 0
26 -85 0
26 -86 0
85 -85 0
86 -86 0
46 -89 0
46 -90 0
89 -89 0
90 -90 0
66 -93 0
66 -94 0
93 -93 0
94 -94 0
7 -98 -81 0
-7 98 -81 0
7 98 -82 0
-7 -98 -82 0
27 -98 -85 0
-27 98 -85 0
27 98 -86 0
-27 -98 -86 0
47 -98 -89 0
-47 98 -89 0
47 98 -90 0
-47 -98 -90 0
67 -98 -93 0
-67 98 -93 0
67 98 -94 0
-67 -98 -94 0
8 -81 0
8 -82 0
81 -81 0
82 -82 0
28 -85 0
28 -86 0
85 -85 0
86 -86 0
48 -89 0
48 -90 0
89 -89 0
90 -90 0
68 -93 0
68 -94 0
93 -93 0
94 -94 0
9 -81 0
9 -82 0
81 -81 0
82 -82 0
29 -85 0
29 -86 0
85 -85 0
86 -86 0
49 -89 0
49 -90 0
89 -89 0
90 -90 0
69 -93 0
69 -94 0
93 -93 0
94 -94 0
10 -99 -81 0
-10 99 -81 0
10 99 -82 0
-10 -99 -82 0
30 -99 -85 0
-30 99 -85 0
30 99 -86 0
-30 -99 -86 0
50 -99 -89 0
-50 99 -89 0
50 99 -90 0
-50 -99 -90 0
70 -99 -93 0
-70 99 -93 0
70 99 -94 0
-70 -99 -94 0
11 -100 -81 0
-11 100 -81 0
11 100 -82 0
-11 -100 -82 0
31 -100 -85 0
-31 100 -85 0
31 100 -86 0
-31 -100 -86 0
51 -100 -89 0
-51 100 -89 0
51 100 -90 0
-51 -100 -90 0
71 -100 -93 0
-71 100 -93 0
71 100 -94 0
-71 -100 -94 0
12 -81 0
12 -82 0
81 -81 0
82 -82 0
32 -85 0
32 -86 0
85 -85 0
86 -86 0
52 -89 0
52 -90 0
89 -89 0
90 -90 0
72 -93 0
72 -94 0
93 -93 0
94 -94 0
13 -101 -81 0
-13 101 -81 0
13 101 -82 0
-13 -101 -82 0
33 -101 -85 0
-33 101 -85 0
33 101 -86 0
-33 -101 -86 0
53 -101 -89 0
-53 101 -89 0
53 101 -90 0
-53 -101 -90 0
73 -101 -93 0
-73 101 -93 0
73 101 -94 0
-73 -101 -94 0
14 -81 0
14 -82 0
81 -81 0
82 -82 0
34 -85 0
34 -86 0
85 -85 0
86 -86 0
54 -89 0
54 -90 0
89 -89 0
90 -90 0
74 -93 0
74 -94 0
93 -93 0
94 -94 0
15 -81 0
15 -82 0
81 -81 0
82 -82 0
35 -85 0
35 -86 0
85 -85 0
86 -86 0
55 -89 0
55 -90 0
89 -89 0
90 -90 0
75 -93 0
75 -94 0
93 -93 0
94 -94 0
16 -81 0
16 -82 0
81 -81 0
82 -82 0
36 -85 0
36 -86 0
85 -85 0
86 -86 0
56 -89 0
56 -90 0
89 -89 0
90 -90 0
76 -93 0
76 -94 0
93 -93 0
94 -94 0
17 -81 0
17 -82 0
81 -81 0
82 -82 0
37 -85 0
37 -86 0
85 -85 0
86 -86 0
57 -89 0
57 -90 0
89 -89 0
90 -90 0
77 -93 0
77 -94 0
93 -93 0
94 -94 0
-18 -81 0
-18 -82 0
81 -81 0
82 -82 0
-38 -85 0
-38 -86 0
85 -85 0
86 -86 0
-58 -89 0
-58 -90 0
89 -89 0
90 -90 0
-78 -93 0
-78 -94 0
93 -93 0
94 -94 0
19 -81 0
19 -82 0
81 -81 0
82 -82 0
39 -85 0
39 -86 0
85 -85 0
86 -86 0
59 -89 0
59 -90 0
89 -89 0
90 -90 0
79 -93 0
79 -94 0
93 -93 0
94 -94 0
20 -81 0
20 -82 0
81 -81 0
82 -82 0
40 -85 0
40 -86 0
85 -85 0
86 -86 0
60 -89 0
60 -90 0
89 -89 0
90 -90 0
80 -93 0
80 -94 0
93 -93 0
94 -94 0
-137 81 0
137 -81 0
-138 82 0
137 -82 0
-137 -81 0
-138 -82 0
-141 81 137 0
141 -81 0
141 -137 0
-142 82 138 0
142 -82 0
142 -138 0
-141 -85 0
-142 -86 0
-145 85 141 0
145 -85 0
145 -141 0
-146 86 142 0
146 -86 0
146 -142 0
-145 -89 0
-146 -90 0
-149 89 145 0
149 -89 0
149 -145 0
-150 90 146 0
150 -90 0
150 -146 0
-149 -93 0
-150 -94 0
149 0
150 0
1 -83 0
1 -84 0
83 -83 0
84 -84 0
21 -87 0
21 -88 0
87 -87 0
88 -88 0
41 -91 0
41 -92 0
91 -91 0
92 -92 0
61 -95 0
61 -96 0
95 -95 0
96 -96 0
2 -102 -83 0
-2 102 -83 0
2 102 -84 0
-2 -102 -84 0
22 -102 -87 0
-22 102 -87 0
22 102 -88 0
-22 -102 -88 0
42 -102 -91 0
-42 102 -91 0
42 102 -92 0
-42 -102 -92 0
62 -102 -95 0
-62 102 -95 0
62 102 -96 0
-62 -102 -96 0
3 -103 -83 0
-3 103 -83 0
3 103 -84 0
-3 -103 -84 0
23 -103 -87 0
-23 103 -87 0
23 103 -88 0
-23 -103 -88 0
43 -103 -91 0
-43 103 -91 0
43 103 -92 0
-43 -103 -92 0
63 -103 -95 0
-63 103 -95 0
63 103 -96 0
-63 -103 -96 0
4 -83 0
4 -84 0
83 -83 0
84 -84 0
24 -87 0
24 -88 0
87 -87 0
88 -88 0
44 -91 0
44 -92 0
91 -91 0
92 -92 0
64 -95 0
64 -96 0
95 -95 0
96 -96 0
5 -104 -83 0
-5 104 -83 0
5 104 -84 0
-5 -104 -84 0
25 -104 -87 0
-25 104 -87 0
25 104 -88 0
-25 -104 -88 0
45 -104 -91 0
-45 104 -91 0
45 104 -92 0
-45 -104 -92 0
65 -104 -95 0
-65 104 -95 0
65 104 -96 0
-65 -104 -96 0
6 -83 0
6 -84 0
83 -83 0
84 -84 0
26 -87 0
26 -88 0
87 -87 0
88 -88 0
46 -91 0
46 -92 0
91 -91 0
92 -92 0
66 -95 0
66 -96 0
95 -95 0
96 -96 0
7 -83 0
7 -84 0
83 -83 0
84 -84 0
27 -87 0
27 -88 0
87 -87 0
88 -88 0
47 -91 0
47 -92 0
91 -91 0
92 -92 0
67 -95 0
67 -96 0
95 -95 0
96 -96 0
8 -83 0
8 -84 0
83 -83 0
84 -84 0
28 -87 0
28 -88 0
87 -87 0
88 -88 0
48 -91 0
48 -92 0
91 -91 0
92 -92 0
68 -95 0
68 -96 0
95 -95 0
96 -96 0
9 -83 0
9 -84 0
83 -83 0
84 -84 0
29 -87 0
29 -88 0
87 -87 0
88 -88 0
49 -91 0
49 -92 0
91 -91 0
92 -92 0
69 -95 0
69 -96 0
95 -95 0
96 -96 0
10 -105 -83 0
-10 105 -83 0
10 105 -84 0
-10 -105 -84 0
30 -105 -87 0
-30 105 -87 0
30 105 -88 0
-30 -105 -88 0
50 -105 -91 0
-50 105 -91 0
50 105 -92 0
-50 -105 -92 0
70 -105 -95 0
-70 105 -95 0
70 105 -96 0
-70 -105 -96 0
11 -83 0
11 -84 0
83 -83 0
84 -84 0
31 -87 0
31 -88 0
87 -87 0
88 -88 0
51 -91 0
51 -92 0
91 -91 0
92 -92 0
71 -95 0
71 -96 0
95 -95 0
96 -96 0
12 -83 0
12 -84 0
83 -83 0
84 -84 0
32 -87 0
32 -88 0
87 -87 0
88 -88 0
52 -91 0
52 -92 0
91 -91 0
92 -92 0
72 -95 0
72 -96 0
95 -95 0
96 -96 0
-13 -83 0
-13 -84 0
83 -83 0
84 -84 0
-33 -87 0
-33 -88 0
87 -87 0
88 -88 0
-53 -91 0
-53 -92 0
91 -91 0
92 -92 0
-73 -95 0
-73 -96 0
95 -95 0
96 -96 0
14 -83 0
14 -84 0
83 -83 0
84 -84 0
34 -87 0
34 -88 0
87 -87 0
88 -88 0
54 -91 0
54 -92 0
91 -91 0
92 -92 0
74 -95 0
74 -96 0
95 -95 0
96 -96 0
15 -106 -83 0
-15 106 -83 0
15 106 -84 0
-15 -106 -84 0
35 -106 -87 0
-35 106 -87 0
35 106 -88 0
-35 -106 -88 0
55 -106 -91 0
-55 106 -91 0
55 106 -92 0
-55 -106 -92 0
75 -106 -95 0
-75 106 -95 0
75 106 -96 0
-75 -106 -96 0
16 -107 -83 0
-16 107 -83 0
16 107 -84 0
-16 -107 -84 0
36 -107 -87 0
-36 107 -87 0
36 107 -88 0
-36 -107 -88 0
56 -107 -91 0
-56 107 -91 0
56 107 -92 0
-56 -107 -92 0
76 -107 -95 0
-76 107 -95 0
76 107 -96 0
-76 -107 -96 0
17 -108 -83 0
-17 108 -83 0
17 108 -84 0
-17 -108 -84 0
37 -108 -87 0
-37 108 -87 0
37 108 -88 0
-37 -108 -88 0
57 -108 -91 0
-57 108 -91 0
57 108 -92 0
-57 -108 -92 0
77 -108 -95 0
-77 108 -95 0
77 108 -96 0
-77 -108 -96 0
18 -109 -83 0
-18 109 -83 0
18 109 -84 0
-18 -109 -84 0
38 -109 -87 0
-38 109 -87 0
38 109 -88 0
-38 -109 -88 0
58 -109 -91 0
-58 109 -91 0
58 109 -92 0
-58 -109 -92 0
78 -109 -95 0
-78 109 -95 0
78 109 -96 0
-78 -109 -96 0
19 -83 0
19 -84 0
83 -83 0
84 -84 0
39 -87 0
39 -88 0
87 -87 0
88 -88 0
59 -91 0
59 -92 0
91 -91 0
92 -92 0
79 -95 0
79 -96 0
95 -95 0
96 -96 0
20 -110 -83 0
-20 110 -83 0
20 110 -84 0
-20 -110 -84 0
40 -110 -87 0
-40 110 -87 0
40 110 -88 0
-40 -110 -88 0
60 -110 -91 0
-60 110 -91 0
60 110 -92 0
-60 -110 -92 0
80 -110 -95 0
-80 110 -95 0
80 110 -96 0
-80 -110 -96 0
-139 83 0
139 -83 0
-140 84 0
139 -84 0
-139 -83 0
-140 -84 0
-143 83 139 0
143 -83 0
143 -139 0
-144 84 140 0
144 -84 0
144 -140 0
-143 -87 0
-144 -88 0
-147 87 143 0
147 -87 0
147 -143 0
-148 88 144 0
148 -88 0
148 -144 0
-147 -91 0
-148 -92 0
-151 91 147 0
151 -91 0
151 -147 0
-152 92 148 0
152 -92 0
152 -148 0
-151 -95 0
-152 -96 0
151 0
152 0
